CMPL model generation - running

CMPL version: 1.11.0
Authors: Thomas Schleiff, Mike Steglich
Distributed under the GPLv3 

create model instance ...
write model instance ...
CMPL model generation - finished

Solver - running


Welcome to IBM(R) ILOG(R) CPLEX(R) Interactive Optimizer 12.7.1.0
  with Simplex, Mixed Integer & Barrier Optimizers
5725-A06 5725-A29 5724-Y48 5724-Y49 5724-Y54 5724-Y55 5655-Y21
Copyright IBM Corp. 1988, 2017.  All Rights Reserved.

Type 'help' for a list of available commands.
Type 'help' followed by a command name for more
information on commands.

CPLEX> Specified objective sense: MINIMIZE
Selected objective  name:  line[1]
Selected RHS        name:  RHS
Selected bound      name:  BOUND
Problem '/tmp/cmpl.T23376.mps' read.
Read time = 0.06 sec. (10.11 ticks)
CPLEX> CPXPARAM_Read_APIEncoding                        "UTF-8"
Tried aggregator 3 times.
MIP Presolve eliminated 24114 rows and 37788 columns.
MIP Presolve modified 425 coefficients.
Aggregator did 693 substitutions.
Reduced MIP has 3115 rows, 3974 columns, and 11790 nonzeros.
Reduced MIP has 3764 binaries, 0 generals, 0 SOSs, and 0 indicators.
Presolve time = 0.06 sec. (51.70 ticks)
Found incumbent of value 382.893343 after 0.09 sec. (71.59 ticks)
Probing fixed 7 vars, tightened 0 bounds.
Probing time = 0.01 sec. (4.99 ticks)
Tried aggregator 1 time.
MIP Presolve eliminated 0 rows and 7 columns.
MIP Presolve modified 30 coefficients.
Reduced MIP has 3115 rows, 3967 columns, and 11776 nonzeros.
Reduced MIP has 3967 binaries, 0 generals, 0 SOSs, and 0 indicators.
Presolve time = 0.01 sec. (9.99 ticks)
Probing time = 0.01 sec. (2.82 ticks)
Clique table members: 6531.
MIP emphasis: balance optimality and feasibility.
MIP search method: dynamic search.
Parallel mode: none, using 1 thread.
Root relaxation solution time = 0.00 sec. (5.30 ticks)

        Nodes                                         Cuts/
   Node  Left     Objective  IInf  Best Integer    Best Bound    ItCnt     Gap

*     0+    0                          382.8933      -32.3223           108.44%
      0     0       16.8420    18      382.8933       16.8420       78   95.60%
*     0+    0                           56.5668       16.8420            70.23%
*     0+    0                           17.2535       16.8420             2.38%
      0     0        cutoff             17.2535                     78    0.00%
Elapsed time = 0.15 sec. (111.72 ticks, tree = 0.01 MB, solutions = 3)

Root node processing (before b&c):
  Real time             =    0.15 sec. (113.55 ticks)
Sequential b&c:
  Real time             =    0.00 sec. (0.00 ticks)
                          ------------
Total (root+branch&cut) =    0.15 sec. (113.55 ticks)

Solution pool: 3 solutions saved.

MIP - Integer optimal solution:  Objective =  1.7253469000e+01
Solution time =    0.15 sec.  Iterations = 78  Nodes = 0
Deterministic time = 113.67 ticks  (737.99 ticks/sec)

CPLEX> Incumbent solution written to file '/tmp/cmpl.T23376.gsol'.
CPLEX> 
CMPL: Time used for model generation: 1 seconds
CMPL: Time used for solving the model: 0 seconds


Solution written to ASCII file: results/output_generated_conf_0/2016-10-03-5/fair-nonlinear.sol

Solver - finished
